2
40
60
40	36
1	2	12	7	29	3	
2	1	11	5	
3	1	15	8	
4	1	27	2	
5	1	7	14	
6	2	7	15	30	4	
7	2	5	10	16	8	
8	2	19	9	20	6	
9	1	13	6	
10	1	8	8	
11	2	7	14	20	3	
12	2	5	13	12	5	
13	1	15	8	
14	2	15	9	19	4	
15	1	9	9	
16	1	7	17	
17	1	6	10	
18	1	23	3	
19	1	5	10	
20	2	4	15	19	3	
21	1	27	2	
22	2	5	9	26	3	
23	2	25	4	27	3	
24	2	4	18	4	17	
25	2	19	8	17	7	
26	2	5	8	31	2	
27	1	17	5	
28	2	18	8	21	3	
29	2	19	8	12	7	
30	1	18	8	
31	2	28	3	29	2	
32	2	4	17	23	2	
33	1	30	4	
34	2	8	12	17	2	
35	2	5	11	30	4	
36	1	14	6	
37	1	8	11	
38	2	27	4	36	3	
39	1	25	2	
40	1	18	3	
